0 17 40 9 39 12 26 0
0 29 15 57 13 54 46 0
0 68 62 22 61 21 48 30 0
0 3 44 50 18 24 49 16 0
0 4 45 27 52 34 67 0
0 5 37 20 60 69 36 47 0
0 6 33 43 56 23 63 51 0
0 8 19 14 53 35 7 0
0 11 66 65 38 10 58 0
